
Gurobi 11.0.0 (win64) logging started Sat Jun 15 09:38:45 2024

Set parameter LogFile to value "./GurobiLog/stage_1_iter_0.log"
Set parameter Threads to value 1
Set parameter FeasibilityTol to value 1e-05
Gurobi Optimizer version 11.0.0 build v11.0.0rc2 (win64 - Windows 10.0 (18363.2))

CPU model: Intel(R) Core(TM) i7-8700 CPU @ 3.20GHz, instruction set [SSE2|AVX|AVX2]
Thread count: 6 physical cores, 12 logical processors, using up to 1 threads


Warning: excessive time spent in model updates.
Consider calling update less frequently.

Optimize a model with 1481 rows, 20450 columns and 26115 nonzeros
Model fingerprint: 0xfa24a382
Coefficient statistics:
  Matrix range     [1e+00, 4e+01]
  Objective range  [1e-01, 2e+05]
  Bounds range     [1e+01, 2e+01]
  RHS range        [1e+00, 3e+04]
Presolve removed 1072 rows and 17435 columns
Presolve time: 0.01s
Presolved: 409 rows, 3015 columns, 7825 nonzeros

Iteration    Objective       Primal Inf.    Dual Inf.      Time
       0    4.9302300e+03   3.032405e+02   0.000000e+00      0s
     430    3.6229632e+04   0.000000e+00   0.000000e+00      0s

Solved in 430 iterations and 0.02 seconds (0.01 work units)
Optimal objective  3.622963167e+04

Gurobi 11.0.0 (win64) logging started Sat Jun 15 09:39:31 2024

Set parameter LogFile to value "./GurobiLog/stage_1_iter_0.log"
Set parameter Threads to value 1
Set parameter FeasibilityTol to value 1e-05
Gurobi Optimizer version 11.0.0 build v11.0.0rc2 (win64 - Windows 10.0 (18363.2))

CPU model: Intel(R) Core(TM) i7-8700 CPU @ 3.20GHz, instruction set [SSE2|AVX|AVX2]
Thread count: 6 physical cores, 12 logical processors, using up to 1 threads


Warning: excessive time spent in model updates.
Consider calling update less frequently.

Optimize a model with 1481 rows, 20450 columns and 26115 nonzeros
Model fingerprint: 0x500bf12d
Coefficient statistics:
  Matrix range     [1e+00, 4e+01]
  Objective range  [1e-01, 2e+05]
  Bounds range     [1e+01, 2e+01]
  RHS range        [1e+00, 3e+04]
Presolve removed 1071 rows and 17433 columns
Presolve time: 0.01s
Presolved: 410 rows, 3017 columns, 7830 nonzeros

Iteration    Objective       Primal Inf.    Dual Inf.      Time
       0    5.1903200e+03   3.045530e+02   0.000000e+00      0s
     437    3.3105212e+04   0.000000e+00   0.000000e+00      0s

Solved in 437 iterations and 0.02 seconds (0.01 work units)
Optimal objective  3.310521167e+04

Gurobi 11.0.0 (win64) logging started Sat Jun 15 10:37:31 2024

Set parameter LogFile to value "./GurobiLog/stage_1_iter_0.log"
Set parameter Threads to value 1
Set parameter FeasibilityTol to value 1e-05
Gurobi Optimizer version 11.0.0 build v11.0.0rc2 (win64 - Windows 10.0 (18363.2))

CPU model: Intel(R) Core(TM) i7-8700 CPU @ 3.20GHz, instruction set [SSE2|AVX|AVX2]
Thread count: 6 physical cores, 12 logical processors, using up to 1 threads


Warning: excessive time spent in model updates.
Consider calling update less frequently.

Optimize a model with 1481 rows, 20450 columns and 26115 nonzeros
Model fingerprint: 0xa116ecb5
Coefficient statistics:
  Matrix range     [1e+00, 4e+01]
  Objective range  [1e-01, 2e+05]
  Bounds range     [1e+01, 2e+01]
  RHS range        [1e+00, 3e+04]
Presolve removed 1074 rows and 17435 columns
Presolve time: 0.01s
Presolved: 407 rows, 3015 columns, 7820 nonzeros

Iteration    Objective       Primal Inf.    Dual Inf.      Time
       0    4.3563300e+03   2.934905e+02   0.000000e+00      0s
     455    3.4931293e+04   0.000000e+00   0.000000e+00      0s

Solved in 455 iterations and 0.02 seconds (0.01 work units)
Optimal objective  3.493129333e+04

Gurobi 11.0.0 (win64) logging started Sat Jun 15 10:37:52 2024

Set parameter LogFile to value "./GurobiLog/stage_1_iter_0.log"
Set parameter Threads to value 1
Set parameter FeasibilityTol to value 1e-05
Gurobi Optimizer version 11.0.0 build v11.0.0rc2 (win64 - Windows 10.0 (18363.2))

CPU model: Intel(R) Core(TM) i7-8700 CPU @ 3.20GHz, instruction set [SSE2|AVX|AVX2]
Thread count: 6 physical cores, 12 logical processors, using up to 1 threads


Warning: excessive time spent in model updates.
Consider calling update less frequently.

Optimize a model with 1481 rows, 20450 columns and 26115 nonzeros
Model fingerprint: 0xf639f8fc
Coefficient statistics:
  Matrix range     [1e+00, 4e+01]
  Objective range  [1e-01, 2e+05]
  Bounds range     [1e+01, 2e+01]
  RHS range        [1e+00, 3e+04]
Presolve removed 1070 rows and 17433 columns
Presolve time: 0.01s
Presolved: 411 rows, 3017 columns, 7832 nonzeros

Iteration    Objective       Primal Inf.    Dual Inf.      Time
       0    5.1114900e+03   3.022405e+02   0.000000e+00      0s
     448    3.4312632e+04   0.000000e+00   0.000000e+00      0s

Solved in 448 iterations and 0.02 seconds (0.01 work units)
Optimal objective  3.431263167e+04

Gurobi 11.0.0 (win64) logging started Sat Jun 15 10:56:43 2024

Set parameter LogFile to value "./GurobiLog/stage_1_iter_0.log"
Set parameter Threads to value 1
Set parameter FeasibilityTol to value 1e-05
Gurobi Optimizer version 11.0.0 build v11.0.0rc2 (win64 - Windows 10.0 (18363.2))

CPU model: Intel(R) Core(TM) i7-8700 CPU @ 3.20GHz, instruction set [SSE2|AVX|AVX2]
Thread count: 6 physical cores, 12 logical processors, using up to 1 threads


Warning: excessive time spent in model updates.
Consider calling update less frequently.

Optimize a model with 1481 rows, 20450 columns and 26115 nonzeros
Model fingerprint: 0x675880ad
Coefficient statistics:
  Matrix range     [1e+00, 4e+01]
  Objective range  [1e-01, 2e+05]
  Bounds range     [1e+01, 2e+01]
  RHS range        [1e+00, 3e+04]
Presolve removed 1071 rows and 17432 columns
Presolve time: 0.01s
Presolved: 410 rows, 3018 columns, 7832 nonzeros

Iteration    Objective       Primal Inf.    Dual Inf.      Time
       0    5.2055800e+03   3.064280e+02   0.000000e+00      0s
     436    3.3068373e+04   0.000000e+00   0.000000e+00      0s

Solved in 436 iterations and 0.02 seconds (0.01 work units)
Optimal objective  3.306837333e+04

Gurobi 11.0.0 (win64) logging started Sat Jun 15 13:12:09 2024

Set parameter LogFile to value "./GurobiLog/stage_1_iter_0.log"
Set parameter Threads to value 1
Set parameter FeasibilityTol to value 1e-05
Gurobi Optimizer version 11.0.0 build v11.0.0rc2 (win64 - Windows 10.0 (18363.2))

CPU model: Intel(R) Core(TM) i7-8700 CPU @ 3.20GHz, instruction set [SSE2|AVX|AVX2]
Thread count: 6 physical cores, 12 logical processors, using up to 1 threads


Warning: excessive time spent in model updates.
Consider calling update less frequently.

Optimize a model with 941 rows, 10130 columns and 14745 nonzeros
Model fingerprint: 0xa2f1bb34
Coefficient statistics:
  Matrix range     [1e+00, 5e+01]
  Objective range  [1e-01, 2e+05]
  Bounds range     [1e+01, 2e+01]
  RHS range        [1e+00, 3e+04]
Presolve removed 536 rows and 7194 columns
Presolve time: 0.02s
Presolved: 405 rows, 2936 columns, 7522 nonzeros

Iteration    Objective       Primal Inf.    Dual Inf.      Time
       0    3.0003000e+03   3.525203e+02   0.000000e+00      0s
     433    3.3632165e+04   0.000000e+00   0.000000e+00      0s

Solved in 433 iterations and 0.04 seconds (0.01 work units)
Optimal objective  3.363216500e+04

Gurobi 11.0.0 (win64) logging started Sat Jun 15 13:13:11 2024

Set parameter LogFile to value "./GurobiLog/stage_1_iter_0.log"
Set parameter Threads to value 1
Set parameter FeasibilityTol to value 1e-05
Gurobi Optimizer version 11.0.0 build v11.0.0rc2 (win64 - Windows 10.0 (18363.2))

CPU model: Intel(R) Core(TM) i7-8700 CPU @ 3.20GHz, instruction set [SSE2|AVX|AVX2]
Thread count: 6 physical cores, 12 logical processors, using up to 1 threads


Warning: excessive time spent in model updates.
Consider calling update less frequently.

Optimize a model with 941 rows, 10130 columns and 14745 nonzeros
Model fingerprint: 0xe552204b
Coefficient statistics:
  Matrix range     [1e+00, 5e+01]
  Objective range  [1e-01, 2e+05]
  Bounds range     [1e+01, 2e+01]
  RHS range        [1e+00, 3e+04]
Presolve removed 542 rows and 7261 columns
Presolve time: 0.01s
Presolved: 399 rows, 2869 columns, 7175 nonzeros

Iteration    Objective       Primal Inf.    Dual Inf.      Time
       0    2.5360900e+03   3.548953e+02   0.000000e+00      0s
     423    3.5051307e+04   0.000000e+00   0.000000e+00      0s

Solved in 423 iterations and 0.01 seconds (0.01 work units)
Optimal objective  3.505130667e+04

Gurobi 11.0.0 (win64) logging started Sat Jun 15 13:14:34 2024

Set parameter LogFile to value "./GurobiLog/stage_1_iter_0.log"
Set parameter Threads to value 1
Set parameter FeasibilityTol to value 1e-05
Gurobi Optimizer version 11.0.0 build v11.0.0rc2 (win64 - Windows 10.0 (18363.2))

CPU model: Intel(R) Core(TM) i7-8700 CPU @ 3.20GHz, instruction set [SSE2|AVX|AVX2]
Thread count: 6 physical cores, 12 logical processors, using up to 1 threads


Warning: excessive time spent in model updates.
Consider calling update less frequently.

Optimize a model with 1638 rows, 16386 columns and 37107 nonzeros
Model fingerprint: 0xd40cd9c4
Coefficient statistics:
  Matrix range     [1e-01, 2e+05]
  Objective range  [1e-01, 2e+05]
  Bounds range     [1e+01, 4e+02]
  RHS range        [3e-01, 3e+04]
Presolve removed 834 rows and 9318 columns
Presolve time: 0.02s
Presolved: 804 rows, 7068 columns, 21065 nonzeros

Iteration    Objective       Primal Inf.    Dual Inf.      Time
       0   -1.0614931e+04   1.342475e+03   0.000000e+00      0s
    1103    6.4505408e+04   0.000000e+00   0.000000e+00      0s

Solved in 1103 iterations and 0.04 seconds (0.03 work units)
Optimal objective  6.450540767e+04

Gurobi 11.0.0 (win64) logging started Sat Jun 15 13:45:55 2024

Set parameter LogFile to value "./GurobiLog/stage_1_iter_0.log"
Set parameter Threads to value 1
Set parameter FeasibilityTol to value 1e-05
Gurobi Optimizer version 11.0.0 build v11.0.0rc2 (win64 - Windows 10.0 (18363.2))

CPU model: Intel(R) Core(TM) i7-8700 CPU @ 3.20GHz, instruction set [SSE2|AVX|AVX2]
Thread count: 6 physical cores, 12 logical processors, using up to 1 threads


Warning: excessive time spent in model updates.
Consider calling update less frequently.

Optimize a model with 1998 rows, 27726 columns and 81807 nonzeros
Model fingerprint: 0x3791fc75
Coefficient statistics:
  Matrix range     [1e-01, 2e+05]
  Objective range  [1e-01, 2e+05]
  Bounds range     [1e+01, 1e+03]
  RHS range        [3e-01, 3e+04]
Presolve removed 774 rows and 12269 columns
Presolve time: 0.04s
Presolved: 1224 rows, 15457 columns, 52840 nonzeros

Iteration    Objective       Primal Inf.    Dual Inf.      Time
       0    1.4678493e+04   1.371073e+03   0.000000e+00      0s
    3688    8.9074009e+05   0.000000e+00   0.000000e+00      0s

Solved in 3688 iterations and 0.12 seconds (0.15 work units)
Optimal objective  8.907400854e+05
Warning for adding constraints: zero or small (< 1e-13) coefficients, ignored

Gurobi 11.0.0 (win64) logging started Sun Jun 16 17:42:06 2024

Set parameter LogFile to value "./GurobiLog/stage_1_iter_0.log"
Set parameter Threads to value 1
Set parameter FeasibilityTol to value 1e-05
Gurobi Optimizer version 11.0.0 build v11.0.0rc2 (win64 - Windows 10.0 (18363.2))

CPU model: Intel(R) Core(TM) i7-8700 CPU @ 3.20GHz, instruction set [SSE2|AVX|AVX2]
Thread count: 6 physical cores, 12 logical processors, using up to 1 threads


Warning: excessive time spent in model updates.
Consider calling update less frequently.

Optimize a model with 3119 rows, 42859 columns and 135605 nonzeros
Model fingerprint: 0x98d655cb
Coefficient statistics:
  Matrix range     [3e-01, 2e+05]
  Objective range  [3e-01, 2e+05]
  Bounds range     [1e+01, 2e+03]
  RHS range        [3e-01, 2e+04]
Presolve removed 1160 rows and 18189 columns
Presolve time: 0.07s
Presolved: 1959 rows, 24670 columns, 83360 nonzeros

Iteration    Objective       Primal Inf.    Dual Inf.      Time
       0    1.2134960e+04   1.064172e+03   0.000000e+00      0s
    6036    4.0897331e+06   0.000000e+00   0.000000e+00      0s

Solved in 6036 iterations and 0.19 seconds (0.22 work units)
Optimal objective  4.089733137e+06

Gurobi 11.0.0 (win64) logging started Tue Jul  2 10:25:45 2024

Set parameter LogFile to value "./GurobiLog/stage_1_iter_0.log"
Set parameter Threads to value 1
Set parameter FeasibilityTol to value 1e-05
Gurobi Optimizer version 11.0.0 build v11.0.0rc2 (win64 - Windows 10.0 (18363.2))

CPU model: Intel(R) Core(TM) i7-8700 CPU @ 3.20GHz, instruction set [SSE2|AVX|AVX2]
Thread count: 6 physical cores, 12 logical processors, using up to 1 threads


Warning: excessive time spent in model updates.
Consider calling update less frequently.

Optimize a model with 1923 rows, 27596 columns and 74922 nonzeros
Model fingerprint: 0xbdbc8429
Coefficient statistics:
  Matrix range     [1e-01, 2e+05]
  Objective range  [1e-03, 2e+05]
  Bounds range     [2e+00, 1e+03]
  RHS range        [1e+00, 2e+04]
Presolve removed 936 rows and 18749 columns
Presolve time: 0.03s
Presolved: 987 rows, 8847 columns, 29843 nonzeros

Iteration    Objective       Primal Inf.    Dual Inf.      Time
       0    1.8289380e+04   9.834198e+02   0.000000e+00      0s
    2718    3.6240872e+06   0.000000e+00   0.000000e+00      0s

Solved in 2718 iterations and 0.08 seconds (0.09 work units)
Optimal objective  3.624087192e+06

Gurobi 11.0.0 (win64) logging started Tue Jul  2 14:50:21 2024

Set parameter LogFile to value "./GurobiLog/stage_1_iter_0.log"
Set parameter Threads to value 1
Set parameter FeasibilityTol to value 1e-05
Gurobi Optimizer version 11.0.0 build v11.0.0rc2 (win64 - Windows 10.0 (18363.2))

CPU model: Intel(R) Core(TM) i7-8700 CPU @ 3.20GHz, instruction set [SSE2|AVX|AVX2]
Thread count: 6 physical cores, 12 logical processors, using up to 1 threads


Warning: excessive time spent in model updates.
Consider calling update less frequently.

Optimize a model with 2763 rows, 52921 columns and 140707 nonzeros
Model fingerprint: 0x0fd0ebdb
Coefficient statistics:
  Matrix range     [2e-01, 2e+05]
  Objective range  [1e-03, 2e+05]
  Bounds range     [5e+00, 1e+03]
  RHS range        [2e+00, 3e+04]
Presolve removed 1843 rows and 43117 columns
Presolve time: 0.04s
Presolved: 920 rows, 9804 columns, 33400 nonzeros

Iteration    Objective       Primal Inf.    Dual Inf.      Time
       0    2.3722800e+04   1.380591e+03   0.000000e+00      0s
Extra simplex iterations after uncrush: 42
    3259    6.7339390e+06   0.000000e+00   0.000000e+00      0s

Solved in 3259 iterations and 0.11 seconds (0.12 work units)
Optimal objective  6.733939028e+06
